p cnf 3069 2764
c ind 1518 1519 1520 1521 1522 1523 1524 1525 1526 1527 0
c ind 1528 1529 1530 1531 1532 1533 1534 1535 1536 1537 0
c ind 1538 1539 1540 1541 1542 1543 1203 1204 1205 1206 0
c ind 1207 1208 1209 1210 1211 1212 1213 1214 1215 1216 0
c ind 1217 1218 1219 1220 1221 1222 1223 1224 1225 1226 0
c ind 1227 1228 1229 1230 1231 1232 1233 1234 1235 1236 0
c ind 1237 1238 1239 1240 1241 1242 1243 1244 1245 1246 0
c ind 1247 1248 1249 1250 1251 1252 1253 1254 1255 1256 0
c ind 1257 1258 1259 1260 1261 1262 1263 1264 1265 1266 0
c ind 1267 1268 1269 1270 1271 1272 1273 1274 1275 1276 0
c ind 1277 1278 1279 1280 1281 1282 1283 1284 1285 1286 0
c ind 1287 1288 1289 1102 1103 1104 1105 1106 1107 1108 0
c ind 1109 1110 1111 1112 1113 1114 1115 1116 1117 1118 0
c ind 1119 1120 1121 1122 1123 1124 1125 1126 1127 985 0
c ind 1033 1034 1035 1449 1450 1451 1452 1453 1454 1455 0
c ind 1456 1457 1458 1459 1460 1128 1461 1129 1462 1463 0
c ind 1130 1464 1131 1465 1466 1036 1037 1038 1039 1040 0
c ind 1041 1042 1043 1044 1045 1046 1132 1133 1047 1048 0
c ind 1049 1134 1050 1051 1135 1008 1052 1053 1054 1055 0
c ind 1056 1057 1010 1011 1136 1012 1013 1014 1015 1016 0
c ind 1137 1017 1138 1018 1139 1019 1140 1020 1021 1022 0
c ind 1023 1024 1025 1026 1027 1028 1029 1030 1031 1141 0
c ind 1783 1784 1785 1786 1787 1788 1142 1143 1789 1790 0
c ind 1144 1791 1145 1792 1793 1794 1795 1009 1796 1797 0
c ind 1798 1799 1800 1801 1802 1803 1804 986 987 988 0
c ind 989 1146 990 1147 991 1148 992 993 1149 994 0
c ind 995 996 997 998 999 1000 1001 1002 1003 1004 0
c ind 1150 1005 1006 1007 1151 1290 1152 1291 1153 1154 0
c ind 1292 1293 1294 1295 1296 1297 1298 1544 1299 1300 0
c ind 1301 1302 1303 1304 1155 1156 1305 1306 1307 1308 0
c ind 1309 1157 1310 1311 1312 1313 1314 1315 1316 1317 0
c ind 1318 1158 1319 1320 1321 1322 1323 1159 1160 1324 0
c ind 1325 1161 1326 1327 1162 1328 1329 1330 1331 1332 0
c ind 1333 1058 1059 1060 1061 1062 1063 1064 1065 1066 0
c ind 1067 1068 1069 1070 1071 1072 1073 1074 1075 1076 0
c ind 1077 1078 1079 1080 1081 1082 1083 1084 1085 1086 0
c ind 1087 1088 1089 1090 1091 1092 1093 1545 1094 1095 0
c ind 1096 1097 1098 1099 1100 1101 934 935 936 937 0
c ind 938 939 940 941 942 943 944 945 946 947 0
c ind 948 949 950 951 952 953 954 955 956 957 0
c ind 958 959 960 961 962 963 964 1032 965 966 0
c ind 967 968 969 970 971 972 973 974 975 976 0
c ind 977 978 979 980 981 982 983 984 1467 1468 0
c ind 1469 1470 1471 1472 1473 1474 1475 1476 1477 1478 0
c ind 1479 1480 1481 1482 1483 1484 1485 1486 1487 1488 0
c ind 1489 1490 1491 1492 1493 1494 1495 1496 1497 1498 0
c ind 1499 1500 1501 1502 1503 1504 1505 1506 1507 1508 0
c ind 1509 1510 1511 1512 1513 1514 1515 1516 1517 0
788 -789 900 0
788 -789 815 0
-788 789 0
-815 -900 -788 0
789 -790 -804 -814 0
-789 790 0
-789 804 0
-789 814 0
790 791 -795 0
-790 -791 0
-790 795 0
-792 -1041 791 0
-794 -1041 791 0
-793 -1041 791 0
-791 1041 0
-791 792 793 794 0
792 -1047 1048 1049 0
-792 1047 0
-792 -1049 0
-792 -1048 0
793 1047 1050 1051 0
-793 -1047 0
-793 -1051 0
-793 -1050 0
794 -1042 1043 1044 0
-794 1042 0
-794 -1044 0
-794 -1043 0
795 796 800 -1019 -1798 0
-795 1798 0
-795 -800 0
-795 1019 0
-795 -796 0
797 1020 796 1021 1022 0
-796 -797 0
-796 -1022 0
-796 -1020 0
-796 -1021 0
797 798 -1025 0
797 798 799 -1026 0
-797 -798 0
-797 -799 1025 0
-797 1025 1026 0
798 1023 -1024 0
-798 -1023 0
-798 1024 0
799 1031 1783 0
799 1031 1790 1791 0
-799 -1031 0
-799 -1783 -1790 0
-799 -1783 -1791 0
801 1799 800 1800 1801 0
-800 -801 0
-800 -1801 0
-800 -1799 0
-800 -1800 0
801 802 -1804 0
801 802 803 -986 0
-801 -802 0
-801 -803 1804 0
-801 986 1804 0
802 1802 -1803 0
-802 -1802 0
-802 1803 0
803 991 992 0
803 991 999 1000 0
-803 -991 0
-803 -992 -999 0
-803 -992 -1000 0
804 -807 1095 0
804 -807 934 0
804 805 -807 0
-804 807 0
-805 -934 -804 -1095 0
805 -806 -935 936 0
-805 935 0
-805 -936 0
-805 806 0
806 938 -939 -940 941 0
-806 -938 0
-806 -941 0
-806 940 0
-806 939 0
807 808 -811 813 0
807 808 -811 985 0
-807 811 0
-807 -808 0
-813 -985 -807 0
-809 -810 808 -1084 0
-809 -810 808 -1085 0
-808 810 0
-808 809 0
-808 1084 1085 0
809 1087 1088 1089 1090 0
-809 -1090 0
-809 -1089 0
-809 -1087 0
-809 -1088 0
810 -1081 -1082 -1083 1086 0
-810 1083 0
-810 -1086 0
-810 1081 0
-810 1082 0
811 -812 -1474 -1503 -1532 0
-811 812 0
-811 1474 0
-811 1532 0
-811 1503 0
812 -963 -1220 -1249 -1278 0
-812 1278 0
-812 963 0
-812 1249 0
-812 1220 0
813 1329 1330 1331 0
-813 -1329 0
-813 -1331 0
-813 -1330 0
814 -1009 -1545 0
814 1032 -1544 0
814 -1009 1032 0
814 -1544 -1545 0
1009 1544 -814 0
-1032 1545 -814 0
815 -816 -877 0
-815 816 0
-815 877 0
816 -817 869 1770 0
816 -817 -869 -1770 0
-816 817 0
-816 869 -1770 0
-816 -869 1770 0
817 -838 -1761 0
817 818 -838 0
-817 838 0
-817 -818 1761 0
818 834 -811 0
818 819 -811 -823 0
811 -818 0
-818 -819 -834 0
-818 823 -834 0
819 -821 985 -1074 0
819 820 985 1074 0
-819 -985 0
-819 821 -1074 0
-819 -820 1074 0
820 -1141 -790 0
-820 1141 0
790 -820 0
821 -822 1142 0
820 821 822 0
-821 -822 -1142 0
-820 -821 822 0
822 1316 -1318 0
-822 -1316 0
-822 1318 0
823 -824 833 0
821 823 -824 -831 0
-823 824 0
-821 -823 -833 0
-823 831 -833 0
824 825 808 0
-808 -824 0
-824 -825 0
825 -826 -1095 0
825 827 -1095 0
-825 1095 0
-825 826 -827 0
826 1098 -1100 0
-826 -1098 0
-826 1100 0
827 828 830 0
806 827 828 -1095 0
-827 -828 0
-827 -830 1095 0
-806 -827 -830 0
828 -829 934 0
-828 -934 0
-828 829 0
829 958 -960 0
-829 -958 0
-829 960 0
830 -934 -935 936 0
-830 934 0
-830 935 0
-830 -936 0
831 832 -1329 0
831 832 -1330 0
831 832 -1331 0
-831 -832 0
-831 1329 1330 1331 0
832 1061 -1063 0
-832 -1061 0
-832 1063 0
832 833 -985 0
833 -985 1143 0
-833 985 0
-832 -833 -1143 0
829 834 836 0
834 835 836 0
834 836 1145 0
-834 -836 0
-829 -834 -835 -1145 0
835 934 -1095 0
-835 -934 0
-835 1095 0
-826 836 -837 -1144 0
-836 1144 0
826 -836 0
-836 837 0
-827 837 -1095 0
-837 1095 0
827 -837 0
838 -868 -839 1741 0
838 868 -839 -1741 0
-838 839 0
-838 -868 -1741 0
-838 868 1741 0
839 -850 -840 0
-839 840 0
-839 850 0
840 -811 -841 0
840 -811 848 0
811 -840 0
841 -848 -840 0
829 -835 841 -842 0
-829 -835 841 -1135 0
835 -841 0
829 -841 842 0
-829 -841 1135 0
-826 842 -1134 0
826 842 -843 0
-826 -842 1134 0
826 -842 843 0
843 844 808 847 0
843 844 808 -846 0
-808 -843 0
-843 -844 0
-843 846 -847 0
844 -845 985 -1074 0
790 844 985 1074 0
-844 -985 0
-844 845 -1074 0
-844 1074 -790 0
790 822 845 0
-822 845 1132 0
822 -845 -790 0
-822 -845 -1132 0
-831 845 846 0
831 -846 0
-845 -846 0
832 847 -985 0
847 -985 1133 0
-847 985 0
-832 -847 -1133 0
848 849 -1095 0
842 843 848 0
843 848 849 0
842 848 -1095 0
-843 -848 1095 0
-842 -848 -849 0
805 849 -934 -1095 0
-849 934 0
-849 1095 0
-805 -849 0
850 -851 -858 0
850 853 -856 -858 0
-850 858 0
851 -853 -850 0
851 856 -850 0
-826 851 -1095 0
851 -852 -1095 0
-851 1095 0
826 -851 852 0
-829 852 934 -1149 0
829 -852 0
-852 1149 0
-852 -934 0
853 -855 985 -1074 0
853 854 985 1074 0
-853 -985 0
-853 855 -1074 0
-853 -854 1074 0
854 -1545 -790 0
-854 1545 0
790 -854 0
-822 855 1146 0
822 854 855 0
-822 -855 -1146 0
822 -854 -855 0
856 857 808 0
-831 855 808 856 0
-808 -856 0
831 -856 -857 0
-855 -856 -857 0
832 857 -985 0
857 -985 1147 0
-857 985 0
-832 -857 -1147 0
858 -859 -861 -866 0
858 861 -863 -866 0
-858 866 0
859 -861 -858 0
861 863 -858 0
859 -1127 -1157 0
859 860 -1157 0
-859 1157 0
-859 -860 1127 0
860 -1119 -795 1121 0
-860 1119 0
-860 -1121 0
795 -860 0
861 -1074 1294 0
861 862 1294 0
861 -985 1294 0
-861 -1294 0
-861 -862 985 1074 0
862 1075 1076 1077 1078 0
-862 -1078 0
-862 -1077 0
-862 -1075 0
-862 -1076 0
863 865 -795 -1125 0
863 864 -795 865 0
795 -863 0
-863 -865 0
-863 -864 1125 0
864 -1119 1121 0
-864 1119 0
-864 -1121 0
-791 865 1119 0
865 1119 1156 1451 0
-865 -1119 0
-865 -1156 791 0
-865 -1451 791 0
-852 866 -804 0
825 866 -804 0
866 -867 -804 0
804 -866 0
-825 852 -866 867 0
-827 867 -1148 0
-867 1148 0
827 -867 0
-860 868 -804 0
804 -868 0
860 -868 0
869 875 -811 0
869 870 -811 -873 0
811 -869 0
-869 -870 -875 0
-869 873 -875 0
870 -872 985 -1074 0
870 871 985 1074 0
-870 -985 0
-870 872 -1074 0
-870 -871 1074 0
871 -1150 -790 0
-871 1150 0
790 -871 0
-822 872 1151 0
822 871 872 0
-822 -872 -1151 0
822 -871 -872 0
-824 873 874 0
-824 -831 872 873 0
824 -873 0
831 -873 -874 0
-872 -873 -874 0
832 874 -985 0
874 -985 1152 0
-874 985 0
-832 -874 -1152 0
829 875 876 0
835 875 876 0
875 876 1154 0
-875 -876 0
-829 -835 -875 -1154 0
-826 -837 876 -1153 0
-876 1153 0
826 -876 0
837 -876 0
-818 877 -878 0
877 -878 1761 0
-877 878 0
818 -877 -1761 0
878 -879 889 0
878 889 1778 0
-878 -889 0
-878 879 -1778 0
879 -880 -811 0
879 888 -811 0
811 -879 0
-879 880 -888 0
829 -835 880 -881 0
-829 -835 880 -1162 0
835 -880 0
829 -880 881 0
-829 -880 1162 0
-826 881 -1161 0
826 881 -882 0
-826 -881 1161 0
826 -881 882 0
882 883 808 887 0
882 883 808 -886 0
-808 -882 0
-882 -883 0
-882 886 -887 0
883 -885 985 -1074 0
883 884 985 1074 0
-883 -985 0
-883 885 -1074 0
-883 -884 1074 0
884 -1158 -790 0
-884 1158 0
790 -884 0
-822 885 1159 0
822 884 885 0
-822 -885 -1159 0
822 -884 -885 0
-831 885 886 0
831 -886 0
-885 -886 0
832 887 -985 0
887 -985 1160 0
-887 985 0
-832 -887 -1160 0
881 888 -1095 0
849 882 888 0
881 882 888 0
849 888 -1095 0
-849 -881 -888 0
-882 -888 1095 0
889 -890 1168 0
889 890 -1168 0
-889 -890 -1168 0
-889 890 1168 0
890 -891 -811 0
890 899 -811 0
811 -890 0
-890 891 -899 0
829 -835 891 -892 0
-829 -835 891 -1131 0
835 -891 0
829 -891 892 0
-829 -891 1131 0
-826 892 -1130 0
826 892 -893 0
-826 -892 1130 0
826 -892 893 0
893 894 808 898 0
893 894 808 -897 0
-808 -893 0
-893 -894 0
-893 897 -898 0
894 895 -985 1129 0
832 894 895 -985 0
-894 985 0
-894 -895 0
-832 -894 -1129 0
-831 895 896 0
831 -895 0
-895 -896 0
-822 896 1128 0
790 822 896 0
822 896 1032 0
-822 -896 -1128 0
822 -896 -790 -1032 0
897 -1032 -790 1074 0
822 897 -790 -1032 0
-897 1032 0
790 -897 0
-822 -897 -1074 0
898 985 1128 0
898 985 1074 0
822 898 985 0
-898 -985 0
-822 -898 -1074 -1128 0
892 899 -1095 0
849 893 899 0
892 893 899 0
849 899 -1095 0
-849 -892 -899 0
-893 -899 1095 0
900 -901 911 -1756 0
900 901 911 1756 0
-900 -911 0
-900 901 -1756 0
-900 -901 1756 0
901 -902 -811 0
901 910 -811 0
811 -901 0
-901 902 -910 0
829 -835 902 -903 0
-829 -835 902 -1140 0
835 -902 0
829 -902 903 0
-829 -902 1140 0
-826 903 -1139 0
826 903 -904 0
-826 -903 1139 0
826 -903 904 0
904 905 808 909 0
904 905 808 -908 0
-808 -904 0
-904 -905 0
-904 908 -909 0
905 -907 985 -1074 0
905 906 985 1074 0
-905 -985 0
-905 907 -1074 0
-905 -906 1074 0
906 -1136 -790 0
-906 1136 0
790 -906 0
-822 907 1137 0
822 906 907 0
-822 -907 -1137 0
822 -906 -907 0
-831 907 908 0
831 -908 0
-907 -908 0
832 909 -985 0
909 -985 1138 0
-909 985 0
-832 -909 -1138 0
903 910 -1095 0
849 904 910 0
903 904 910 0
849 910 -1095 0
-849 -903 -910 0
-904 -910 1095 0
-879 911 1778 0
-911 -1778 0
879 -911 0
917 -789 912 0
913 -789 912 0
789 -912 0
-912 -913 -917 0
890 913 -840 -914 2039 0
-890 913 -840 -914 -2039 0
-913 914 0
890 -2039 -913 0
840 -913 0
-890 2039 -913 0
914 -915 -916 2641 0
-869 914 -915 -916 0
-914 916 0
-914 915 0
869 -2641 -914 0
-868 915 -850 2612 0
868 915 -850 -2612 0
850 -915 0
-868 -2612 -915 0
868 2612 -915 0
-818 869 916 -2632 0
818 869 916 2632 0
818 916 2632 -2641 0
-818 916 -2632 -2641 0
818 -2632 -916 0
-818 2632 -916 0
-869 2641 -916 0
879 -901 917 -2627 2649 0
-879 -901 917 -2627 -2649 0
879 901 917 2627 2649 0
-879 901 917 2627 -2649 0
-901 2627 -917 0
901 -2627 -917 0
879 -2649 -917 0
-879 2649 -917 0
-901 918 -789 0
815 918 -789 0
-911 918 -789 0
789 -918 0
-815 901 911 -918 0
-869 919 -789 0
919 920 -789 0
817 919 -789 0
789 -919 0
-817 869 -919 -920 0
-877 911 920 0
877 -920 0
-911 -920 0
-818 921 -789 0
921 922 -789 0
838 921 -789 0
789 -921 0
818 -838 -921 -922 0
-878 911 922 0
878 -922 0
-911 -922 0
-879 923 -789 0
923 924 -789 0
789 -923 0
879 -923 -924 0
-838 889 924 0
838 -924 0
-889 -924 0
-890 925 -789 0
838 925 -789 0
789 -925 0
-838 890 -925 0
868 926 -789 0
839 926 -789 0
789 -926 0
-868 -926 -839 0
839 927 -789 0
789 -927 0
-839 -927 0
920 928 -789 0
816 928 -789 0
901 928 -789 0
789 -928 0
-816 -901 -920 -928 0
920 929 -789 0
817 929 -789 0
869 929 -789 0
789 -929 0
-817 -869 -920 -929 0
922 930 -789 0
818 930 -789 0
838 930 -789 0
789 -930 0
-818 -838 -922 -930 0
924 931 -789 0
879 931 -789 0
789 -931 0
-879 -924 -931 0
890 932 -789 0
838 932 -789 0
789 -932 0
-838 -890 -932 0
-868 933 -789 0
839 933 -789 0
789 -933 0
868 -933 -839 0
1 788 0
-1 -788 0
2 788 0
-2 -788 0
3 912 0
-3 -912 0
97 -918 0
-97 918 0
98 -919 0
-98 919 0
99 -921 0
-99 921 0
100 -923 0
-100 923 0
104 -925 0
-104 925 0
126 -926 0
-126 926 0
298 -927 0
-298 927 0
489 -928 0
-489 928 0
490 -929 0
-490 929 0
491 -930 0
-491 930 0
492 -931 0
-492 931 0
496 -932 0
-496 932 0
518 -933 0
-518 933 0
690 -927 0
-690 927 0
-97 -489 2770 0
97 -2770 0
489 -2770 0
97 -1756 0
-97 1756 0
-98 -490 2771 0
98 -2771 0
490 -2771 0
98 -1770 0
-98 1770 0
-99 -491 2772 0
99 -2772 0
491 -2772 0
99 -1761 0
-99 1761 0
-100 -492 2773 0
100 -2773 0
492 -2773 0
100 -1778 0
-100 1778 0
-104 -496 2777 0
104 -2777 0
496 -2777 0
104 -1168 0
-104 1168 0
-126 -518 2799 0
126 -2799 0
518 -2799 0
126 -1741 0
-126 1741 0
-298 -690 2971 0
298 -2971 0
690 -2971 0
298 -1413 0
-298 1413 0
-1 0
-2 0
3 0
4 0
5 0
6 0
7 0
8 0
9 0
10 0
11 0
12 0
13 0
14 0
15 0
16 0
17 0
18 0
19 0
20 0
21 0
22 0
23 0
24 0
25 0
26 0
27 0
28 0
29 0
30 0
31 0
32 0
33 0
34 0
35 0
36 0
37 0
38 0
39 0
40 0
41 0
42 0
43 0
44 0
45 0
46 0
47 0
48 0
49 0
50 0
51 0
52 0
53 0
54 0
55 0
56 0
57 0
58 0
59 0
60 0
61 0
62 0
63 0
64 0
65 0
66 0
67 0
68 0
69 0
70 0
71 0
72 0
73 0
74 0
75 0
76 0
77 0
78 0
79 0
80 0
81 0
82 0
83 0
84 0
85 0
86 0
87 0
88 0
89 0
90 0
91 0
92 0
93 0
94 0
95 0
96 0
101 0
102 0
103 0
105 0
106 0
107 0
108 0
109 0
110 0
111 0
112 0
113 0
114 0
115 0
116 0
117 0
118 0
119 0
120 0
121 0
122 0
123 0
124 0
125 0
127 0
128 0
129 0
130 0
131 0
132 0
133 0
134 0
135 0
136 0
137 0
138 0
139 0
140 0
141 0
142 0
143 0
144 0
145 0
146 0
147 0
148 0
149 0
150 0
151 0
152 0
153 0
154 0
155 0
156 0
157 0
158 0
159 0
160 0
161 0
162 0
163 0
164 0
165 0
166 0
167 0
168 0
169 0
170 0
171 0
172 0
173 0
174 0
175 0
176 0
177 0
178 0
179 0
180 0
181 0
182 0
183 0
184 0
185 0
186 0
187 0
188 0
189 0
190 0
191 0
192 0
193 0
194 0
195 0
196 0
197 0
198 0
199 0
200 0
201 0
202 0
203 0
204 0
205 0
206 0
207 0
208 0
209 0
210 0
211 0
212 0
213 0
214 0
215 0
216 0
217 0
218 0
219 0
220 0
221 0
222 0
223 0
224 0
225 0
226 0
227 0
228 0
229 0
230 0
231 0
232 0
233 0
234 0
235 0
236 0
237 0
238 0
239 0
240 0
241 0
242 0
243 0
-244 0
245 0
246 0
247 0
248 0
249 0
250 0
251 0
252 0
253 0
254 0
255 0
256 0
257 0
258 0
259 0
260 0
261 0
262 0
263 0
264 0
265 0
266 0
267 0
268 0
269 0
270 0
271 0
272 0
273 0
274 0
275 0
276 0
277 0
278 0
279 0
280 0
281 0
282 0
283 0
284 0
285 0
286 0
287 0
288 0
289 0
290 0
291 0
292 0
293 0
294 0
295 0
296 0
297 0
-298 0
299 0
300 0
301 0
302 0
303 0
304 0
305 0
306 0
-307 0
308 0
309 0
310 0
311 0
312 0
313 0
314 0
315 0
316 0
317 0
318 0
319 0
320 0
321 0
322 0
323 0
324 0
325 0
326 0
327 0
328 0
329 0
330 0
331 0
332 0
333 0
334 0
-335 0
336 0
337 0
338 0
339 0
340 0
341 0
342 0
343 0
344 0
345 0
346 0
347 0
348 0
349 0
350 0
351 0
352 0
353 0
354 0
355 0
356 0
357 0
358 0
359 0
360 0
361 0
362 0
363 0
364 0
365 0
366 0
367 0
368 0
369 0
370 0
371 0
372 0
373 0
374 0
375 0
376 0
377 0
378 0
379 0
380 0
381 0
382 0
383 0
384 0
385 0
386 0
387 0
388 0
389 0
390 0
391 0
392 0
393 0
394 0
395 0
-396 0
-397 0
-398 0
-399 0
-400 0
-401 0
-402 0
-403 0
-404 0
-405 0
-406 0
-407 0
-408 0
-409 0
-410 0
-411 0
-412 0
-413 0
-414 0
-415 0
-416 0
-417 0
-418 0
-419 0
-420 0
-421 0
-422 0
-423 0
-424 0
-425 0
-426 0
-427 0
-428 0
-429 0
-430 0
-431 0
-432 0
-433 0
-434 0
-435 0
-436 0
-437 0
-438 0
-439 0
-440 0
-441 0
-442 0
-443 0
-444 0
-445 0
-446 0
-447 0
-448 0
-449 0
-450 0
-451 0
-452 0
-453 0
-454 0
-455 0
-456 0
-457 0
-458 0
-459 0
-460 0
-461 0
-462 0
-463 0
-464 0
-465 0
-466 0
-467 0
-468 0
-469 0
-470 0
-471 0
-472 0
-473 0
-474 0
-475 0
-476 0
-477 0
-478 0
-479 0
-480 0
-481 0
-482 0
-483 0
-484 0
-485 0
-486 0
-487 0
-488 0
-493 0
-494 0
-495 0
-497 0
-498 0
-499 0
-500 0
-501 0
-502 0
-503 0
-504 0
-505 0
-506 0
-507 0
-508 0
-509 0
-510 0
-511 0
-512 0
-513 0
-514 0
-515 0
-516 0
-517 0
-519 0
-520 0
-521 0
-522 0
-523 0
-524 0
-525 0
-526 0
-527 0
-528 0
-529 0
-530 0
-531 0
-532 0
-533 0
-534 0
-535 0
-536 0
-537 0
-538 0
-539 0
-540 0
-541 0
-542 0
-543 0
-544 0
-545 0
-546 0
-547 0
-548 0
-549 0
-550 0
-551 0
-552 0
-553 0
-554 0
-555 0
-556 0
-557 0
-558 0
-559 0
-560 0
-561 0
-562 0
-563 0
-564 0
-565 0
-566 0
-567 0
-568 0
-569 0
-570 0
-571 0
-572 0
-573 0
-574 0
-575 0
-576 0
-577 0
-578 0
-579 0
-580 0
-581 0
-582 0
-583 0
-584 0
-585 0
-586 0
-587 0
-588 0
-589 0
-590 0
-591 0
-592 0
-593 0
-594 0
-595 0
-596 0
-597 0
-598 0
-599 0
-600 0
-601 0
-602 0
-603 0
-604 0
-605 0
-606 0
-607 0
-608 0
-609 0
-610 0
-611 0
-612 0
-613 0
-614 0
-615 0
-616 0
-617 0
-618 0
-619 0
-620 0
-621 0
-622 0
-623 0
-624 0
-625 0
-626 0
-627 0
-628 0
-629 0
-630 0
-631 0
-632 0
-633 0
-634 0
-635 0
636 0
-637 0
-638 0
-639 0
-640 0
-641 0
-642 0
-643 0
-644 0
-645 0
-646 0
-647 0
-648 0
-649 0
-650 0
-651 0
-652 0
-653 0
-654 0
-655 0
-656 0
-657 0
-658 0
-659 0
-660 0
-661 0
-662 0
-663 0
-664 0
-665 0
-666 0
-667 0
-668 0
-669 0
-670 0
-671 0
-672 0
-673 0
-674 0
-675 0
-676 0
-677 0
-678 0
-679 0
-680 0
-681 0
-682 0
-683 0
-684 0
-685 0
-686 0
-687 0
-688 0
-689 0
-690 0
-691 0
-692 0
-693 0
-694 0
-695 0
-696 0
-697 0
-698 0
699 0
-700 0
-701 0
-702 0
-703 0
-704 0
-705 0
-706 0
-707 0
-708 0
-709 0
-710 0
-711 0
-712 0
-713 0
-714 0
-715 0
-716 0
-717 0
-718 0
-719 0
-720 0
-721 0
-722 0
-723 0
-724 0
-725 0
-726 0
727 0
-728 0
-729 0
-730 0
-731 0
-732 0
-733 0
-734 0
-735 0
-736 0
-737 0
-738 0
-739 0
-740 0
-741 0
-742 0
-743 0
-744 0
-745 0
-746 0
-747 0
-748 0
-749 0
-750 0
-751 0
-752 0
-753 0
-754 0
-755 0
-756 0
-757 0
-758 0
-759 0
-760 0
-761 0
-762 0
-763 0
-764 0
-765 0
-766 0
-767 0
-768 0
-769 0
-770 0
-771 0
-772 0
-773 0
-774 0
-775 0
-776 0
-777 0
-778 0
-779 0
-780 0
-781 0
-782 0
-783 0
-784 0
-785 0
-786 0
-787 0
788 0
789 0
790 0
-791 0
795 0
-796 0
-800 0
804 0
807 0
-808 0
811 0
812 0
814 0
839 0
840 0
850 0
858 0
866 0
-912 0
913 0
914 0
915 0
916 0
917 0
-927 0
963 0
1019 0
-1163 0
1164 0
1165 0
1166 0
1167 0
1169 0
1170 0
1171 0
1172 0
1173 0
1174 0
1175 0
1176 0
1177 0
1178 0
1179 0
1180 0
1181 0
1182 0
1183 0
1184 0
1185 0
1186 0
1187 0
1188 0
1189 0
1190 0
1191 0
1192 0
1193 0
1194 0
1195 0
1196 0
1197 0
1198 0
1199 0
1200 0
1201 0
1202 0
1220 0
1249 0
1278 0
1334 0
1335 0
1336 0
1337 0
1338 0
1339 0
1340 0
1341 0
1342 0
1343 0
1344 0
1345 0
1346 0
1347 0
1348 0
1349 0
1350 0
1351 0
1352 0
1353 0
1354 0
1355 0
1356 0
-1357 0
1358 0
1359 0
1360 0
1361 0
1362 0
1363 0
1364 0
1365 0
1366 0
1367 0
1368 0
1369 0
1370 0
1371 0
1372 0
1373 0
1374 0
1375 0
1376 0
1377 0
1378 0
1379 0
1380 0
1381 0
1382 0
1383 0
1384 0
-1385 0
1386 0
1387 0
1388 0
1389 0
1390 0
1391 0
1392 0
1393 0
1394 0
1395 0
1396 0
1397 0
1398 0
1399 0
1400 0
1401 0
1402 0
1403 0
1404 0
1405 0
1406 0
1407 0
1408 0
1409 0
1410 0
1411 0
1412 0
-1413 0
1414 0
1415 0
1416 0
1417 0
1418 0
1419 0
1420 0
1421 0
1422 0
1423 0
1424 0
1425 0
1426 0
1427 0
1428 0
1429 0
1430 0
1431 0
1432 0
1433 0
1434 0
1435 0
1436 0
1437 0
1438 0
1439 0
1440 0
1441 0
1442 0
1443 0
1444 0
1445 0
1446 0
1447 0
1448 0
1474 0
1503 0
1532 0
1546 0
1547 0
1548 0
1549 0
1550 0
1551 0
1552 0
1553 0
1554 0
1555 0
1556 0
1557 0
1558 0
1559 0
1560 0
1561 0
1562 0
1563 0
1564 0
1565 0
1566 0
1567 0
1568 0
1569 0
1570 0
1571 0
1572 0
1573 0
1574 0
1575 0
1576 0
1577 0
1578 0
1579 0
1580 0
1581 0
1582 0
1583 0
1584 0
1585 0
1586 0
1587 0
1588 0
1589 0
1590 0
1591 0
1592 0
1593 0
1594 0
1595 0
1596 0
1597 0
1598 0
1599 0
1600 0
1601 0
1602 0
1603 0
1604 0
1605 0
1606 0
1607 0
1608 0
1609 0
1610 0
1611 0
1612 0
1613 0
1614 0
1615 0
1616 0
1617 0
1618 0
1619 0
1620 0
1621 0
1622 0
1623 0
1624 0
1625 0
1626 0
1627 0
1628 0
1629 0
1630 0
1631 0
1632 0
1633 0
1634 0
1635 0
1636 0
1637 0
1638 0
1639 0
1640 0
1641 0
1642 0
1643 0
1644 0
1645 0
1646 0
1647 0
1648 0
1649 0
1650 0
1651 0
1652 0
1653 0
1654 0
1655 0
1656 0
1657 0
1658 0
1659 0
1660 0
1661 0
1662 0
1663 0
1664 0
1665 0
1666 0
1667 0
1668 0
1669 0
1670 0
1671 0
1672 0
1673 0
1674 0
1675 0
1676 0
1677 0
1678 0
1679 0
1680 0
1681 0
1682 0
1683 0
1684 0
1685 0
1686 0
1687 0
1688 0
1689 0
1690 0
1691 0
1692 0
1693 0
1694 0
1695 0
1696 0
1697 0
1698 0
1699 0
1700 0
1701 0
1702 0
1703 0
1704 0
1705 0
1706 0
1707 0
1708 0
1709 0
1710 0
1711 0
1712 0
1713 0
1714 0
1715 0
1716 0
1717 0
1718 0
1719 0
1720 0
1721 0
1722 0
1723 0
1724 0
1725 0
1726 0
1727 0
1728 0
1729 0
1730 0
1731 0
1732 0
1733 0
1734 0
1735 0
1736 0
1737 0
1738 0
1739 0
1740 0
1742 0
1743 0
1744 0
1745 0
1746 0
1747 0
1748 0
1749 0
1750 0
1751 0
1752 0
1753 0
1754 0
1755 0
1757 0
1758 0
1759 0
1760 0
1762 0
1763 0
1764 0
1765 0
1766 0
1767 0
1768 0
1769 0
1771 0
1772 0
1773 0
1774 0
1775 0
1776 0
1777 0
1779 0
1780 0
1781 0
1782 0
1798 0
2676 0
-2677 0
-2678 0
-2679 0
-2680 0
-2681 0
-2682 0
-2683 0
-2684 0
-2685 0
-2686 0
-2687 0
-2688 0
-2689 0
-2690 0
-2691 0
-2692 0
-2693 0
-2694 0
-2695 0
-2696 0
-2697 0
-2698 0
-2699 0
-2700 0
-2701 0
-2702 0
-2703 0
-2704 0
-2705 0
-2706 0
-2707 0
-2708 0
-2709 0
-2710 0
-2711 0
-2712 0
-2713 0
-2714 0
-2715 0
-2716 0
-2717 0
-2718 0
-2719 0
-2720 0
-2721 0
-2722 0
-2723 0
-2724 0
-2725 0
-2726 0
-2727 0
-2728 0
-2729 0
-2730 0
-2731 0
-2732 0
-2733 0
-2734 0
-2735 0
-2736 0
-2737 0
-2738 0
-2739 0
-2740 0
-2741 0
-2742 0
-2743 0
-2744 0
-2745 0
-2746 0
-2747 0
-2748 0
-2749 0
-2750 0
-2751 0
-2752 0
-2753 0
-2754 0
-2755 0
-2756 0
-2757 0
-2758 0
-2759 0
-2760 0
-2761 0
-2762 0
-2763 0
-2764 0
-2765 0
-2766 0
-2767 0
-2768 0
-2769 0
-2774 0
-2775 0
-2776 0
-2778 0
-2779 0
-2780 0
-2781 0
-2782 0
-2783 0
-2784 0
-2785 0
-2786 0
-2787 0
-2788 0
-2789 0
-2790 0
-2791 0
-2792 0
-2793 0
-2794 0
-2795 0
-2796 0
-2797 0
-2798 0
-2800 0
-2801 0
-2802 0
-2803 0
-2804 0
-2805 0
-2806 0
-2807 0
-2808 0
-2809 0
-2810 0
-2811 0
-2812 0
-2813 0
-2814 0
-2815 0
-2816 0
-2817 0
-2818 0
-2819 0
-2820 0
-2821 0
-2822 0
-2823 0
-2824 0
-2825 0
-2826 0
-2827 0
-2828 0
-2829 0
-2830 0
-2831 0
-2832 0
-2833 0
-2834 0
-2835 0
-2836 0
-2837 0
-2838 0
-2839 0
-2840 0
-2841 0
-2842 0
-2843 0
-2844 0
-2845 0
-2846 0
-2847 0
-2848 0
-2849 0
-2850 0
-2851 0
-2852 0
-2853 0
-2854 0
-2855 0
-2856 0
-2857 0
-2858 0
-2859 0
-2860 0
-2861 0
-2862 0
-2863 0
-2864 0
-2865 0
-2866 0
-2867 0
-2868 0
-2869 0
-2870 0
-2871 0
-2872 0
-2873 0
-2874 0
-2875 0
-2876 0
-2877 0
-2878 0
-2879 0
-2880 0
-2881 0
-2882 0
-2883 0
-2884 0
-2885 0
-2886 0
-2887 0
-2888 0
-2889 0
-2890 0
-2891 0
-2892 0
-2893 0
-2894 0
-2895 0
-2896 0
-2897 0
-2898 0
-2899 0
-2900 0
-2901 0
-2902 0
-2903 0
-2904 0
-2905 0
-2906 0
-2907 0
-2908 0
-2909 0
-2910 0
-2911 0
-2912 0
-2913 0
-2914 0
-2915 0
-2916 0
-2917 0
-2918 0
-2919 0
-2920 0
-2921 0
-2922 0
-2923 0
-2924 0
-2925 0
-2926 0
-2927 0
-2928 0
-2929 0
-2930 0
-2931 0
-2932 0
-2933 0
-2934 0
-2935 0
-2936 0
-2937 0
-2938 0
-2939 0
-2940 0
-2941 0
-2942 0
-2943 0
-2944 0
-2945 0
-2946 0
-2947 0
-2948 0
-2949 0
-2950 0
-2951 0
-2952 0
-2953 0
-2954 0
-2955 0
-2956 0
-2957 0
-2958 0
-2959 0
-2960 0
-2961 0
-2962 0
-2963 0
-2964 0
-2965 0
-2966 0
-2967 0
-2968 0
-2969 0
-2970 0
-2971 0
-2972 0
-2973 0
-2974 0
-2975 0
-2976 0
-2977 0
-2978 0
-2979 0
-2980 0
-2981 0
-2982 0
-2983 0
-2984 0
-2985 0
-2986 0
-2987 0
-2988 0
-2989 0
-2990 0
-2991 0
-2992 0
-2993 0
-2994 0
-2995 0
-2996 0
-2997 0
-2998 0
-2999 0
-3000 0
-3001 0
-3002 0
-3003 0
-3004 0
-3005 0
-3006 0
-3007 0
-3008 0
-3009 0
-3010 0
-3011 0
-3012 0
-3013 0
-3014 0
-3015 0
-3016 0
-3017 0
-3018 0
-3019 0
-3020 0
-3021 0
-3022 0
-3023 0
-3024 0
-3025 0
-3026 0
-3027 0
-3028 0
-3029 0
-3030 0
-3031 0
-3032 0
-3033 0
-3034 0
-3035 0
-3036 0
-3037 0
-3038 0
-3039 0
-3040 0
-3041 0
-3042 0
-3043 0
-3044 0
-3045 0
-3046 0
-3047 0
-3048 0
-3049 0
-3050 0
-3051 0
-3052 0
-3053 0
-3054 0
-3055 0
-3056 0
-3057 0
-3058 0
-3059 0
-3060 0
-3061 0
-3062 0
-3063 0
-3064 0
-3065 0
-3066 0
-3067 0
-3068 0
-2389 0
-2390 0
-2391 0
-2392 0
-2393 0
-2394 0
-2395 0
-2396 0
-2397 0
-2398 0
-2399 0
-2400 0
-2401 0
-2402 0
-2403 0
-2404 0
-2405 0
-2406 0
-2407 0
-2408 0
-2409 0
-2410 0
-2411 0
-2412 0
-2413 0
-2414 0
-2074 0
-2075 0
-2076 0
-2077 0
-2078 0
-2079 0
-2080 0
-2081 0
-2082 0
-2083 0
-2084 0
-2085 0
-2086 0
-2087 0
-2088 0
-2089 0
-2090 0
-2091 0
-2092 0
-2093 0
-2094 0
-2095 0
-2096 0
-2097 0
-2098 0
-2099 0
-2100 0
-2101 0
-2102 0
-2103 0
-2104 0
-2105 0
-2106 0
-2107 0
-2108 0
-2109 0
-2110 0
-2111 0
-2112 0
-2113 0
-2114 0
-2115 0
-2116 0
-2117 0
-2118 0
-2119 0
-2120 0
-2121 0
-2122 0
-2123 0
-2124 0
-2125 0
-2126 0
-2127 0
-2128 0
-2129 0
-2130 0
-2131 0
-2132 0
-2133 0
-2134 0
-2135 0
-2136 0
-2137 0
-2138 0
-2139 0
-2140 0
-2141 0
-2142 0
-2143 0
-2144 0
-2145 0
-2146 0
-2147 0
-2148 0
-2149 0
-2150 0
-2151 0
-2152 0
-2153 0
-2154 0
-2155 0
-2156 0
-2157 0
-2158 0
-2159 0
-2160 0
-1973 0
-1974 0
-1975 0
-1976 0
-1977 0
-1978 0
-1979 0
-1980 0
-1981 0
-1982 0
-1983 0
-1984 0
-1985 0
-1986 0
-1987 0
-1988 0
-1989 0
-1990 0
-1991 0
-1992 0
-1993 0
-1994 0
-1995 0
-1996 0
-1997 0
-1998 0
-1856 0
-1904 0
-1905 0
-1906 0
-2320 0
-2321 0
-2322 0
-2323 0
-2324 0
-2325 0
-2326 0
-2327 0
-2328 0
-2329 0
-2330 0
-2331 0
-1999 0
-2332 0
-2000 0
-2333 0
-2334 0
-2001 0
-2335 0
-2002 0
-2336 0
-2337 0
-1907 0
-1908 0
-1909 0
-1910 0
-1911 0
-1912 0
-1913 0
-1914 0
-1915 0
-1916 0
-1917 0
-2003 0
-2004 0
-1918 0
-1919 0
-1920 0
-2005 0
-1921 0
-1922 0
-2006 0
-1879 0
-1923 0
-1924 0
-1925 0
-1926 0
-1927 0
-1928 0
-1881 0
-1882 0
-2007 0
-1883 0
-1884 0
-1885 0
-1886 0
-1887 0
-2008 0
-1888 0
-2009 0
-1889 0
-2010 0
-1890 0
-2011 0
-1891 0
-1892 0
-1893 0
-1894 0
-1895 0
-1896 0
-1897 0
-1898 0
-1899 0
-1900 0
-1901 0
-1902 0
-2012 0
-2654 0
-2655 0
-2656 0
-2657 0
-2658 0
-2659 0
-2013 0
-2014 0
-2660 0
-2661 0
-2015 0
-2662 0
-2016 0
-2663 0
-2664 0
-2665 0
-2666 0
-1880 0
-2667 0
-2668 0
-2669 0
-2670 0
-2671 0
-2672 0
-2673 0
-2674 0
-2675 0
-1857 0
-1858 0
-1859 0
-1860 0
-2017 0
-1861 0
-2018 0
-1862 0
-2019 0
-1863 0
-1864 0
-2020 0
-1865 0
-1866 0
-1867 0
-1868 0
-1869 0
-1870 0
-1871 0
-1872 0
-1873 0
-1874 0
-1875 0
-2021 0
-1876 0
-1877 0
-1878 0
-2022 0
-2161 0
-2023 0
-2162 0
-2024 0
-2025 0
-2163 0
-2164 0
-2165 0
-2166 0
-2167 0
-2168 0
-2169 0
-2415 0
-2170 0
-2171 0
-2172 0
-2173 0
-2174 0
-2175 0
-2026 0
-2027 0
-2176 0
-2177 0
-2178 0
-2179 0
-2180 0
-2028 0
-2181 0
-2182 0
-2183 0
-2184 0
-2185 0
-2186 0
-2187 0
-2188 0
-2189 0
-2029 0
-2190 0
-2191 0
-2192 0
-2193 0
-2194 0
-2030 0
-2031 0
-2195 0
-2196 0
-2032 0
-2197 0
-2198 0
-2033 0
-2199 0
-2200 0
-2201 0
-2202 0
-2203 0
-2204 0
-1929 0
-1930 0
-1931 0
-1932 0
-1933 0
-1934 0
-1935 0
-1936 0
-1937 0
-1938 0
-1939 0
-1940 0
-1941 0
-1942 0
-1943 0
-1944 0
-1945 0
-1946 0
-1947 0
-1948 0
-1949 0
-1950 0
-1951 0
-1952 0
-1953 0
-1954 0
-1955 0
-1956 0
-1957 0
-1958 0
-1959 0
-1960 0
-1961 0
-1962 0
-1963 0
-1964 0
-2416 0
-1965 0
-1966 0
-1967 0
-1968 0
-1969 0
-1970 0
-1971 0
-1972 0
-1805 0
-1806 0
-1807 0
-1808 0
-1809 0
-1810 0
-1811 0
-1812 0
-1813 0
-1814 0
-1815 0
-1816 0
-1817 0
-1818 0
-1819 0
-1820 0
-1821 0
-1822 0
-1823 0
-1824 0
-1825 0
-1826 0
-1827 0
-1828 0
-1829 0
-1830 0
-1831 0
-1832 0
-1833 0
-1834 0
-1835 0
-1903 0
-1836 0
-1837 0
-1838 0
-1839 0
-1840 0
-1841 0
-1842 0
-1843 0
-1844 0
-1845 0
-1846 0
-1847 0
-1848 0
-1849 0
-1850 0
-1851 0
-1852 0
-1853 0
-1854 0
-1855 0
-2338 0
-2339 0
-2340 0
-2341 0
-2342 0
-2343 0
-2344 0
-2345 0
-2346 0
-2347 0
-2348 0
-2349 0
-2350 0
-2351 0
-2352 0
-2353 0
-2354 0
-2355 0
-2356 0
-2357 0
-2358 0
-2359 0
-2360 0
-2361 0
-2362 0
-2363 0
-2364 0
-2365 0
-2366 0
-2367 0
-2368 0
-2369 0
-2370 0
-2371 0
-2372 0
-2373 0
-2374 0
-2375 0
-2376 0
-2377 0
-2378 0
-2379 0
-2380 0
-2381 0
-2382 0
-2383 0
-2384 0
-2385 0
-2386 0
-2387 0
-2388 0

